c nIsolatedPIs 0
c maxPI 12
p cnf 211 598
c gate 13 2 5 0
2 -13 0
5 -13 0
-2 -5 13 0
c gate 14 1 6 0
1 -14 0
6 -14 0
-1 -6 14 0
c gate 15 13 14 0
13 -15 0
14 -15 0
-13 -14 15 0
c gate 16 2 6 0
2 -16 0
6 -16 0
-2 -6 16 0
c gate 17 3 5 0
3 -17 0
5 -17 0
-3 -5 17 0
c gate 18 16 17 0
16 -18 0
17 -18 0
-16 -17 18 0
c gate 19 1 7 0
1 -19 0
7 -19 0
-1 -7 19 0
c gate 20 18 -19 0
18 -20 0
-19 -20 0
-18 19 20 0
c gate 21 -16 -17 0
-16 -21 0
-17 -21 0
16 17 21 0
c gate 22 19 -21 0
19 -22 0
-21 -22 0
-19 21 22 0
c gate 23 -19 21 0
-19 -23 0
21 -23 0
19 -21 23 0
c gate 24 -22 -23 0
-22 -24 0
-23 -24 0
22 23 24 0
c gate 25 -18 -24 0
-18 -25 0
-24 -25 0
18 24 25 0
c gate 26 -20 -25 0
-20 -26 0
-25 -26 0
20 25 26 0
c gate 27 15 26 0
15 -27 0
26 -27 0
-15 -26 27 0
c gate 28 1 8 0
1 -28 0
8 -28 0
-1 -8 28 0
c gate 29 -18 -22 0
-18 -29 0
-22 -29 0
18 22 29 0
c gate 30 2 7 0
2 -30 0
7 -30 0
-2 -7 30 0
c gate 31 3 6 0
3 -31 0
6 -31 0
-3 -6 31 0
c gate 32 4 5 0
4 -32 0
5 -32 0
-4 -5 32 0
c gate 33 -31 -32 0
-31 -33 0
-32 -33 0
31 32 33 0
c gate 34 -30 33 0
-30 -34 0
33 -34 0
30 -33 34 0
c gate 35 30 -33 0
30 -35 0
-33 -35 0
-30 33 35 0
c gate 36 31 32 0
31 -36 0
32 -36 0
-31 -32 36 0
c gate 37 -35 -36 0
-35 -37 0
-36 -37 0
35 36 37 0
c gate 38 30 36 0
30 -38 0
36 -38 0
-30 -36 38 0
c gate 39 -37 -38 0
-37 -39 0
-38 -39 0
37 38 39 0
c gate 40 -34 -39 0
-34 -40 0
-39 -40 0
34 39 40 0
c gate 41 -29 40 0
-29 -41 0
40 -41 0
29 -40 41 0
c gate 42 29 -40 0
29 -42 0
-40 -42 0
-29 40 42 0
c gate 43 -41 -42 0
-41 -43 0
-42 -43 0
41 42 43 0
c gate 44 28 43 0
28 -44 0
43 -44 0
-28 -43 44 0
c gate 45 -28 -43 0
-28 -45 0
-43 -45 0
28 43 45 0
c gate 46 -44 -45 0
-44 -46 0
-45 -46 0
44 45 46 0
c gate 47 27 46 0
27 -47 0
46 -47 0
-27 -46 47 0
c gate 48 -41 -44 0
-41 -48 0
-44 -48 0
41 44 48 0
c gate 49 2 8 0
2 -49 0
8 -49 0
-2 -8 49 0
c gate 50 4 6 0
4 -50 0
6 -50 0
-4 -6 50 0
c gate 51 3 7 0
3 -51 0
7 -51 0
-3 -7 51 0
c gate 52 -50 -51 0
-50 -52 0
-51 -52 0
50 51 52 0
c gate 53 50 51 0
50 -53 0
51 -53 0
-50 -51 53 0
c gate 54 -52 -53 0
-52 -54 0
-53 -54 0
52 53 54 0
c gate 55 -37 54 0
-37 -55 0
54 -55 0
37 -54 55 0
c gate 56 37 -54 0
37 -56 0
-54 -56 0
-37 54 56 0
c gate 57 -55 -56 0
-55 -57 0
-56 -57 0
55 56 57 0
c gate 58 -49 -57 0
-49 -58 0
-57 -58 0
49 57 58 0
c gate 59 49 57 0
49 -59 0
57 -59 0
-49 -57 59 0
c gate 60 -58 -59 0
-58 -60 0
-59 -60 0
58 59 60 0
c gate 61 48 -60 0
48 -61 0
-60 -61 0
-48 60 61 0
c gate 62 -48 60 0
-48 -62 0
60 -62 0
48 -60 62 0
c gate 63 -61 -62 0
-61 -63 0
-62 -63 0
61 62 63 0
c gate 64 47 63 0
47 -64 0
63 -64 0
-47 -63 64 0
c gate 65 -47 -63 0
-47 -65 0
-63 -65 0
47 63 65 0
c gate 66 -64 -65 0
-64 -66 0
-65 -66 0
64 65 66 0
c gate 67 -27 -46 0
-27 -67 0
-46 -67 0
27 46 67 0
c gate 68 -47 -67 0
-47 -68 0
-67 -68 0
47 67 68 0
c gate 69 12 68 0
12 -69 0
68 -69 0
-12 -68 69 0
c gate 70 -12 -68 0
-12 -70 0
-68 -70 0
12 68 70 0
c gate 71 -69 -70 0
-69 -71 0
-70 -71 0
69 70 71 0
c gate 72 -15 -26 0
-15 -72 0
-26 -72 0
15 26 72 0
c gate 73 -27 -72 0
-27 -73 0
-72 -73 0
27 72 73 0
c gate 74 11 73 0
11 -74 0
73 -74 0
-11 -73 74 0
c gate 75 -11 -73 0
-11 -75 0
-73 -75 0
11 73 75 0
c gate 76 -13 -14 0
-13 -76 0
-14 -76 0
13 14 76 0
c gate 77 10 -76 0
10 -77 0
-76 -77 0
-10 76 77 0
c gate 78 1 5 0
1 -78 0
5 -78 0
-1 -5 78 0
c gate 79 9 78 0
9 -79 0
78 -79 0
-9 -78 79 0
c gate 80 -10 76 0
-10 -80 0
76 -80 0
10 -76 80 0
c gate 81 -77 -80 0
-77 -81 0
-80 -81 0
77 80 81 0
c gate 82 79 81 0
79 -82 0
81 -82 0
-79 -81 82 0
c gate 83 -77 -82 0
-77 -83 0
-82 -83 0
77 82 83 0
c gate 84 -79 -81 0
-79 -84 0
-81 -84 0
79 81 84 0
c gate 85 -82 -84 0
-82 -85 0
-84 -85 0
82 84 85 0
c gate 86 15 -85 0
15 -86 0
-85 -86 0
-15 85 86 0
c gate 87 -83 -86 0
-83 -87 0
-86 -87 0
83 86 87 0
c gate 88 -75 87 0
-75 -88 0
87 -88 0
75 -87 88 0
c gate 89 -74 -88 0
-74 -89 0
-88 -89 0
74 88 89 0
c gate 90 71 -89 0
71 -90 0
-89 -90 0
-71 89 90 0
c gate 91 -69 -90 0
-69 -91 0
-90 -91 0
69 90 91 0
c gate 92 66 -91 0
66 -92 0
-91 -92 0
-66 91 92 0
c gate 93 -62 -64 0
-62 -93 0
-64 -93 0
62 64 93 0
c gate 94 -55 -59 0
-55 -94 0
-59 -94 0
55 59 94 0
c gate 95 3 8 0
3 -95 0
8 -95 0
-3 -8 95 0
c gate 96 4 7 0
4 -96 0
7 -96 0
-4 -7 96 0
c gate 97 -31 96 0
-31 -97 0
96 -97 0
31 -96 97 0
c gate 98 95 -97 0
95 -98 0
-97 -98 0
-95 97 98 0
c gate 99 -95 97 0
-95 -99 0
97 -99 0
95 -97 99 0
c gate 100 -98 -99 0
-98 -100 0
-99 -100 0
98 99 100 0
c gate 101 -94 -100 0
-94 -101 0
-100 -101 0
94 100 101 0
c gate 102 94 100 0
94 -102 0
100 -102 0
-94 -100 102 0
c gate 103 -101 -102 0
-101 -103 0
-102 -103 0
101 102 103 0
c gate 104 -93 103 0
-93 -104 0
103 -104 0
93 -103 104 0
c gate 105 93 -103 0
93 -105 0
-103 -105 0
-93 103 105 0
c gate 106 -104 -105 0
-104 -106 0
-105 -106 0
104 105 106 0
c gate 107 92 106 0
92 -107 0
106 -107 0
-92 -106 107 0
c gate 108 -92 -106 0
-92 -108 0
-106 -108 0
92 106 108 0
c gate 109 -107 -108 0
-107 -109 0
-108 -109 0
107 108 109 0
c gate 110 -35 52 0
-35 -110 0
52 -110 0
35 -52 110 0
c gate 111 49 -110 0
49 -111 0
-110 -111 0
-49 110 111 0
c gate 112 100 -111 0
100 -112 0
-111 -112 0
-100 111 112 0
c gate 113 -100 111 0
-100 -113 0
111 -113 0
100 -111 113 0
c gate 114 -112 -113 0
-112 -114 0
-113 -114 0
112 113 114 0
c gate 115 -34 -35 0
-34 -115 0
-35 -115 0
34 35 115 0
c gate 116 22 115 0
22 -116 0
115 -116 0
-22 -115 116 0
c gate 117 -22 -115 0
-22 -117 0
-115 -117 0
22 115 117 0
c gate 118 -116 -117 0
-116 -118 0
-117 -118 0
116 117 118 0
c gate 119 28 118 0
28 -119 0
118 -119 0
-28 -118 119 0
c gate 120 -116 -119 0
-116 -120 0
-119 -120 0
116 119 120 0
c gate 121 -49 110 0
-49 -121 0
110 -121 0
49 -110 121 0
c gate 122 -111 -121 0
-111 -122 0
-121 -122 0
111 121 122 0
c gate 123 -120 122 0
-120 -123 0
122 -123 0
120 -122 123 0
c gate 124 120 -122 0
120 -124 0
-122 -124 0
-120 122 124 0
c gate 125 -123 -124 0
-123 -125 0
-124 -125 0
123 124 125 0
c gate 126 -28 -118 0
-28 -126 0
-118 -126 0
28 118 126 0
c gate 127 -119 -126 0
-119 -127 0
-126 -127 0
119 126 127 0
c gate 128 12 127 0
12 -128 0
127 -128 0
-12 -127 128 0
c gate 129 11 24 0
11 -129 0
24 -129 0
-11 -24 129 0
c gate 130 -11 -24 0
-11 -130 0
-24 -130 0
11 24 130 0
c gate 131 -129 -130 0
-129 -131 0
-130 -131 0
129 130 131 0
c gate 132 -83 131 0
-83 -132 0
131 -132 0
83 -131 132 0
c gate 133 -129 -132 0
-129 -133 0
-132 -133 0
129 132 133 0
c gate 134 -12 -127 0
-12 -134 0
-127 -134 0
12 127 134 0
c gate 135 -128 -134 0
-128 -135 0
-134 -135 0
128 134 135 0
c gate 136 -133 135 0
-133 -136 0
135 -136 0
133 -135 136 0
c gate 137 -128 -136 0
-128 -137 0
-136 -137 0
128 136 137 0
c gate 138 125 -137 0
125 -138 0
-137 -138 0
-125 137 138 0
c gate 139 -123 -138 0
-123 -139 0
-138 -139 0
123 138 139 0
c gate 140 114 139 0
114 -140 0
139 -140 0
-114 -139 140 0
c gate 141 -114 -139 0
-114 -141 0
-139 -141 0
114 139 141 0
c gate 142 -140 -141 0
-140 -142 0
-141 -142 0
140 141 142 0
c gate 143 109 142 0
109 -143 0
142 -143 0
-109 -142 143 0
c gate 144 -109 -142 0
-109 -144 0
-142 -144 0
109 142 144 0
c gate 145 -143 -144 0
-143 -145 0
-144 -145 0
143 144 145 0
c gate 146 -125 137 0
-125 -146 0
137 -146 0
125 -137 146 0
c gate 147 -138 -146 0
-138 -147 0
-146 -147 0
138 146 147 0
c gate 148 -66 91 0
-66 -148 0
91 -148 0
66 -91 148 0
c gate 149 -92 -148 0
-92 -149 0
-148 -149 0
92 148 149 0
c gate 150 147 -149 0
147 -150 0
-149 -150 0
-147 149 150 0
c gate 151 -147 149 0
-147 -151 0
149 -151 0
147 -149 151 0
c gate 152 133 -135 0
133 -152 0
-135 -152 0
-133 135 152 0
c gate 153 -136 -152 0
-136 -153 0
-152 -153 0
136 152 153 0
c gate 154 -71 89 0
-71 -154 0
89 -154 0
71 -89 154 0
c gate 155 -90 -154 0
-90 -155 0
-154 -155 0
90 154 155 0
c gate 156 153 -155 0
153 -156 0
-155 -156 0
-153 155 156 0
c gate 157 -153 155 0
-153 -157 0
155 -157 0
153 -155 157 0
c gate 158 -74 -75 0
-74 -158 0
-75 -158 0
74 75 158 0
c gate 159 -132 -158 0
-132 -159 0
-158 -159 0
132 158 159 0
c gate 160 83 -131 0
83 -160 0
-131 -160 0
-83 131 160 0
c gate 161 -86 -160 0
-86 -161 0
-160 -161 0
86 160 161 0
c gate 162 158 161 0
158 -162 0
161 -162 0
-158 -161 162 0
c gate 163 -159 -162 0
-159 -163 0
-162 -163 0
159 162 163 0
c gate 164 -157 -163 0
-157 -164 0
-163 -164 0
157 163 164 0
c gate 165 -156 -164 0
-156 -165 0
-164 -165 0
156 164 165 0
c gate 166 -151 -165 0
-151 -166 0
-165 -166 0
151 165 166 0
c gate 167 -150 -166 0
-150 -167 0
-166 -167 0
150 166 167 0
c gate 168 -101 -104 0
-101 -168 0
-104 -168 0
101 104 168 0
c gate 169 4 8 0
4 -169 0
8 -169 0
-4 -8 169 0
c gate 170 -51 169 0
-51 -170 0
169 -170 0
51 -169 170 0
c gate 171 -8 53 0
-8 -171 0
53 -171 0
8 -53 171 0
c gate 172 -170 -171 0
-170 -172 0
-171 -172 0
170 171 172 0
c gate 173 -168 -172 0
-168 -173 0
-172 -173 0
168 172 173 0
c gate 174 168 172 0
168 -174 0
172 -174 0
-168 -172 174 0
c gate 175 -173 -174 0
-173 -175 0
-174 -175 0
173 174 175 0
c gate 176 107 175 0
107 -176 0
175 -176 0
-107 -175 176 0
c gate 177 -107 -175 0
-107 -177 0
-175 -177 0
107 175 177 0
c gate 178 -176 -177 0
-176 -178 0
-177 -178 0
176 177 178 0
c gate 179 114 138 0
114 -179 0
138 -179 0
-114 -138 179 0
c gate 180 -111 -123 0
-111 -180 0
-123 -180 0
111 123 180 0
c gate 181 -100 -180 0
-100 -181 0
-180 -181 0
100 180 181 0
c gate 182 170 -181 0
170 -182 0
-181 -182 0
-170 181 182 0
c gate 183 -170 181 0
-170 -183 0
181 -183 0
170 -181 183 0
c gate 184 -182 -183 0
-182 -184 0
-183 -184 0
182 183 184 0
c gate 185 -179 184 0
-179 -185 0
184 -185 0
179 -184 185 0
c gate 186 -178 -185 0
-178 -186 0
-185 -186 0
178 185 186 0
c gate 187 -144 167 0
-144 -187 0
167 -187 0
144 -167 187 0
c gate 188 -143 -187 0
-143 -188 0
-187 -188 0
143 187 188 0
c gate 189 -186 -188 0
-186 -189 0
-188 -189 0
186 188 189 0
c gate 190 178 185 0
178 -190 0
185 -190 0
-178 -185 190 0
c gate 191 -173 -176 0
-173 -191 0
-176 -191 0
173 176 191 0
c gate 192 169 -182 0
169 -192 0
-182 -192 0
-169 182 192 0
c gate 193 -191 -192 0
-191 -193 0
-192 -193 0
191 192 193 0
c gate 194 -190 -193 0
-190 -194 0
-193 -194 0
190 193 194 0
c gate 195 -189 194 0
-189 -195 0
194 -195 0
189 -194 195 0
c gate 196 -167 195 0
-167 -196 0
195 -196 0
167 -195 196 0
c gate 197 -150 -151 0
-150 -197 0
-151 -197 0
150 151 197 0
c gate 198 165 195 0
165 -198 0
195 -198 0
-165 -195 198 0
c gate 199 -15 -18 0
-15 -199 0
-18 -199 0
15 18 199 0
c gate 200 -163 -199 0
-163 -200 0
-199 -200 0
163 199 200 0
c gate 201 -156 -200 0
-156 -201 0
-200 -201 0
156 200 201 0
c gate 202 -157 -201 0
-157 -202 0
-201 -202 0
157 201 202 0
c gate 203 -195 202 0
-195 -203 0
202 -203 0
195 -202 203 0
c gate 204 -198 -203 0
-198 -204 0
-203 -204 0
198 203 204 0
c gate 205 197 -204 0
197 -205 0
-204 -205 0
-197 204 205 0
c gate 206 -150 -195 0
-150 -206 0
-195 -206 0
150 195 206 0
c gate 207 -205 206 0
-205 -207 0
206 -207 0
205 -206 207 0
c gate 208 -196 -207 0
-196 -208 0
-207 -208 0
196 207 208 0
c gate 209 145 -208 0
145 -209 0
-208 -209 0
-145 208 209 0
c gate 210 -145 208 0
-145 -210 0
208 -210 0
145 -208 210 0
c gate 211 -209 -210 0
-209 -211 0
-210 -211 0
209 210 211 0
c PO
211 0
